Maximize

48 dSta_0 + 20 d0_1.0 + 41 d0_1.1 + 2 d1_2.0 + 8 d1_2.1 + 20 d1_3.0 + 44 d1_3.1 + 20 d2_3.0 + 43 d2_3.1 + 2 d3_4.0 + 7 d3_4.1 + 23 d3_5.0 + 33 d3_5.1 + 24 d4_5.0 + 33 d4_5.1 + 4 d5_6.0 + 13 d5_6.1 + 19 d5_1.0 + 42 d5_1.1 + 2 d6_7.0 + 8 d6_7.1 + 10 d6_8.0 + 27 d6_8.1 + 10 d7_8.0 + 26 d7_8.1 + 4 d8_9.0 + 10 d8_9.1 + 7 d9_10.0 + 18 d9_10.1 + 16 d9_11.0 + 35 d9_11.1 + 16 d10_11.0 + 34 d10_11.1 + 7 d10_10.0 + 18 d10_10.1 + 4 d11_12.0 + 15 d11_12.1 + 4 d11_9.0 + 10 d11_9.1 + 14 d12_13.0 + 33 d12_13.1 + 10 d12_22.0 + 18 d12_22.1 + 4 d13_14.0 + 15 d13_14.1 + 2 d14_15.0 + 7 d14_15.1 + 32 d14_16.0 + 42 d14_16.1 + 33 d15_16.0 + 42 d15_16.1 + 11 d16_17.0 + 20 d16_17.1 + 4 d16_21.0 + 15 d16_21.1 + 3 d17_18.0 + 14 d17_18.1 + 3 d17_20.0 + 14 d17_20.1 + 118 d18_19.0 + 130 d18_19.1 + 3 d19_20.0 + 13 d19_20.1 + 118 d19_19.0 + 131 d19_19.1 + 4 d20_21.0 + 15 d20_21.1 + 11 d20_17.0 + 20 d20_17.1 + 10 d21_22.0 + 18 d21_22.1 + 4 d21_14.0 + 16 d21_14.1


Subject to

cm - 5 d0_1.1 - 5 d5_1.1 - d1_2.1 - 5 d1_3.1 - 5 d2_3.1 - d3_4.1 - 4 d3_5.1 - 4 d4_5.1 - 2 d5_6.1 - d6_7.1 - 3 d6_8.1 - 3 d7_8.1 - d8_9.1 - d11_9.1 - 2 d9_10.1 - 2 d10_10.1 - 4 d9_11.1 - 4 d10_11.1 - 2 d11_12.1 - 4 d12_13.1 - 2 d13_14.1 - 2 d21_14.1 - d14_15.1 - 3 d14_16.1 - 3 d15_16.1 - 2 d16_17.1 - 2 d20_17.1 - 2 d17_18.1 - 12 d18_19.1 - 12 d19_19.1 - 2 d17_20.1 - 2 d19_20.1 - 2 d16_21.1 - 2 d20_21.1 - 2 d12_22.1 - 2 d21_22.1 = 5

\ === tcfg constraints ===
dSta_0 = 1
b0 - d0_1 = 0
b0 - dSta_0 = 0
b1 - d1_2 - d1_3 = 0
b1 - d0_1 - d5_1 = 0
b2 - d2_3 = 0
b2 - d1_2 = 0
b3 - d3_4 - d3_5 = 0
b3 - d1_3 - d2_3 = 0
b4 - d4_5 = 0
b4 - d3_4 = 0
b5 - d5_6 - d5_1 = 0
b5 - d3_5 - d4_5 = 0
b6 - d6_7 - d6_8 = 0
b6 - d5_6 = 0
b7 - d7_8 = 0
b7 - d6_7 = 0
b8 - d8_9 = 0
b8 - d6_8 - d7_8 = 0
b9 - d9_10 - d9_11 = 0
b9 - d8_9 - d11_9 = 0
b10 - d10_11 - d10_10 = 0
b10 - d9_10 - d10_10 = 0
b11 - d11_12 - d11_9 = 0
b11 - d9_11 - d10_11 = 0
b12 - d12_13 - d12_22 = 0
b12 - d11_12 = 0
b13 - d13_14 = 0
b13 - d12_13 = 0
b14 - d14_15 - d14_16 = 0
b14 - d13_14 - d21_14 = 0
b15 - d15_16 = 0
b15 - d14_15 = 0
b16 - d16_17 - d16_21 = 0
b16 - d14_16 - d15_16 = 0
b17 - d17_18 - d17_20 = 0
b17 - d16_17 - d20_17 = 0
b18 - d18_19 = 0
b18 - d17_18 = 0
b19 - d19_20 - d19_19 = 0
b19 - d18_19 - d19_19 = 0
b20 - d20_21 - d20_17 = 0
b20 - d17_20 - d19_20 = 0
b21 - d21_22 - d21_14 = 0
b21 - d16_21 - d20_21 = 0
b22 - d12_22 - d21_22 = 0


\ === cache_cons ===
b0.0 <= 1
b1 - b1.0 - b1.1 = 0
b2 - b2.0 - b2.1 = 0
b3 - b3.0 - b3.1 = 0
b4 - b4.0 - b4.1 = 0
b5 - b5.0 - b5.1 = 0
b6 - b6.0 - b6.1 = 0
b7 - b7.0 - b7.1 = 0
b8 - b8.0 - b8.1 = 0
b9 - b9.0 - b9.1 = 0
b10 - b10.0 - b10.1 = 0
b11 - b11.0 - b11.1 = 0
b12 - b12.0 - b12.1 = 0
b13 - b13.0 - b13.1 = 0
b14 - b14.0 - b14.1 = 0
b15 - b15.0 - b15.1 = 0
b16 - b16.0 - b16.1 = 0
b17 - b17.0 - b17.1 = 0
b18 - b18.0 - b18.1 = 0
b19 - b19.0 - b19.1 = 0
b20 - b20.0 - b20.1 = 0
b21 - b21.0 - b21.1 = 0
b22 - b22.0 - b22.1 = 0

b0.0 <= 1
b1.0 - d0_1.0 - d5_1.0 = 0
b1.1 - d0_1.1 - d5_1.1 = 0
b2.0 - d1_2.0 = 0
b2.1 - d1_2.1 = 0
b3.0 - d1_3.0 - d2_3.0 = 0
b3.1 - d1_3.1 - d2_3.1 = 0
b4.0 - d3_4.0 = 0
b4.1 - d3_4.1 = 0
b5.0 - d3_5.0 - d4_5.0 = 0
b5.1 - d3_5.1 - d4_5.1 = 0
b6.0 - d5_6.0 = 0
b6.1 - d5_6.1 = 0
b7.0 - d6_7.0 = 0
b7.1 - d6_7.1 = 0
b8.0 - d6_8.0 - d7_8.0 = 0
b8.1 - d6_8.1 - d7_8.1 = 0
b9.0 - d8_9.0 - d11_9.0 = 0
b9.1 - d8_9.1 - d11_9.1 = 0
b10.0 - d9_10.0 - d10_10.0 = 0
b10.1 - d9_10.1 - d10_10.1 = 0
b11.0 - d9_11.0 - d10_11.0 = 0
b11.1 - d9_11.1 - d10_11.1 = 0
b12.0 - d11_12.0 = 0
b12.1 - d11_12.1 = 0
b13.0 - d12_13.0 = 0
b13.1 - d12_13.1 = 0
b14.0 - d13_14.0 - d21_14.0 = 0
b14.1 - d13_14.1 - d21_14.1 = 0
b15.0 - d14_15.0 = 0
b15.1 - d14_15.1 = 0
b16.0 - d14_16.0 - d15_16.0 = 0
b16.1 - d14_16.1 - d15_16.1 = 0
b17.0 - d16_17.0 - d20_17.0 = 0
b17.1 - d16_17.1 - d20_17.1 = 0
b18.0 - d17_18.0 = 0
b18.1 - d17_18.1 = 0
b19.0 - d18_19.0 - d19_19.0 = 0
b19.1 - d18_19.1 - d19_19.1 = 0
b20.0 - d17_20.0 - d19_20.0 = 0
b20.1 - d17_20.1 - d19_20.1 = 0
b21.0 - d16_21.0 - d20_21.0 = 0
b21.1 - d16_21.1 - d20_21.1 = 0
b22.0 - d12_22.0 - d21_22.0 = 0
b22.1 - d12_22.1 - d21_22.1 = 0

b0.1 <= 1
b1.1 <= 1
b2.1 <= 1
b3.1 <= 1
b4.1 <= 1
b5.1 <= 1
b6.1 <= 1
b7.1 <= 1
b8.1 <= 1
b9.1 <= 1
b10.1 <= 1
b11.1 <= 1
b12.1 <= 1
b13.1 <= 1
b14.1 <= 1
b15.1 <= 1
b16.1 <= 1
b17.1 <= 1
b18.1 <= 1
b19.1 <= 1
b20.1 <= 1
b21.1 <= 1
b22.1 <= 1

d5_1.1 = 0
d10_10.1 = 0
d11_9.1 = 0
d19_19.1 = 0
d20_17.1 = 0
d21_14.1 = 0

\ === tcfg_estunit_cons ===
d0_1 - d0_1.0 - d0_1.1 = 0
d1_2 - d1_2.0 - d1_2.1 = 0
d1_3 - d1_3.0 - d1_3.1 = 0
d2_3 - d2_3.0 - d2_3.1 = 0
d3_4 - d3_4.0 - d3_4.1 = 0
d3_5 - d3_5.0 - d3_5.1 = 0
d4_5 - d4_5.0 - d4_5.1 = 0
d5_6 - d5_6.0 - d5_6.1 = 0
d5_1 - d5_1.0 - d5_1.1 = 0
d6_7 - d6_7.0 - d6_7.1 = 0
d6_8 - d6_8.0 - d6_8.1 = 0
d7_8 - d7_8.0 - d7_8.1 = 0
d8_9 - d8_9.0 - d8_9.1 = 0
d9_10 - d9_10.0 - d9_10.1 = 0
d9_11 - d9_11.0 - d9_11.1 = 0
d10_11 - d10_11.0 - d10_11.1 = 0
d10_10 - d10_10.0 - d10_10.1 = 0
d11_12 - d11_12.0 - d11_12.1 = 0
d11_9 - d11_9.0 - d11_9.1 = 0
d12_13 - d12_13.0 - d12_13.1 = 0
d12_22 - d12_22.0 - d12_22.1 = 0
d13_14 - d13_14.0 - d13_14.1 = 0
d14_15 - d14_15.0 - d14_15.1 = 0
d14_16 - d14_16.0 - d14_16.1 = 0
d15_16 - d15_16.0 - d15_16.1 = 0
d16_17 - d16_17.0 - d16_17.1 = 0
d16_21 - d16_21.0 - d16_21.1 = 0
d17_18 - d17_18.0 - d17_18.1 = 0
d17_20 - d17_20.0 - d17_20.1 = 0
d18_19 - d18_19.0 - d18_19.1 = 0
d19_20 - d19_20.0 - d19_20.1 = 0
d19_19 - d19_19.0 - d19_19.1 = 0
d20_21 - d20_21.0 - d20_21.1 = 0
d20_17 - d20_17.0 - d20_17.1 = 0
d21_22 - d21_22.0 - d21_22.1 = 0
d21_14 - d21_14.0 - d21_14.1 = 0
b1- 256 b0 <= 0
b9- 256 b8 <= 0
b10- 8 b9 <= 0
b14- 8 b13 <= 0
b17- 8 b16 <= 0
b19- 4 b18 <= 0

Generals

cm
Sta
b0
d0_1
b1
d1_2
d1_3
b2
d2_3
b3
d3_4
d3_5
b4
d4_5
b5
d5_6
d5_1
b6
d6_7
d6_8
b7
d7_8
b8
d8_9
b9
d9_10
d9_11
b10
d10_11
d10_10
b11
d11_12
d11_9
b12
d12_13
d12_22
b13
d13_14
b14
d14_15
d14_16
b15
d15_16
b16
d16_17
d16_21
b17
d17_18
d17_20
b18
d18_19
b19
d19_20
d19_19
b20
d20_21
d20_17
b21
d21_22
d21_14
b22
b0.0
b1.0
b1.1
b2.0
b2.1
b3.0
b3.1
b4.0
b4.1
b5.0
b5.1
b6.0
b6.1
b7.0
b7.1
b8.0
b8.1
b9.0
b9.1
b10.0
b10.1
b11.0
b11.1
b12.0
b12.1
b13.0
b13.1
b14.0
b14.1
b15.0
b15.1
b16.0
b16.1
b17.0
b17.1
b18.0
b18.1
b19.0
b19.1
b20.0
b20.1
b21.0
b21.1
b22.0
b22.1
b0.0
b1.0
b1.1
b2.0
b2.1
b3.0
b3.1
b4.0
b4.1
b5.0
b5.1
b6.0
b6.1
b7.0
b7.1
b8.0
b8.1
b9.0
b9.1
b10.0
b10.1
b11.0
b11.1
b12.0
b12.1
b13.0
b13.1
b14.0
b14.1
b15.0
b15.1
b16.0
b16.1
b17.0
b17.1
b18.0
b18.1
b19.0
b19.1
b20.0
b20.1
b21.0
b21.1
b22.0
b22.1

End
\ total_cons: 185 	total_vars: 151
